nK = 1933;
nT = 8;
nI = 21;
L = 29;
TT = 396;
np = 1;
nc = 3;
b = [48, 60, 43, 69, 27, 36, 60, 25, 59, 21, 56, 39, 37, 50, 49, 40, 29, 42, 68, 68, 38];
d = [125, 109, 97, 105, 122, 81, 102, 70, 133, 110, 139, 131, 94, 141, 132, 135, 72, 98, 116, 128, 138];
m = [2.5, 1.1, 1.6, 1.8, 1.2, 1.9, 2.3, 1.3, 1, 2, 1.5, 2, 2.2, 1.8, 2.5, 1.8, 2.5, 1.7, 2.4, 1.6, 2];
pt = [0.2, 0.23, 0.31, 0.24, 0.33, 0.21, 0.22, 0.32];
st = [9.4, 9.66, 14.26, 10.32, 16.17, 9.03, 12.98, 16];
arc = {<1, 0, 1, 1, 0, 0, 0, [1, 1, 1, 1, 1, 1, 1, 1]>, <2, 1, 2, 1, 0, 0, 0, [1, 1, 1, 1, 1, 1, 1, 1]>, <3, 2, 3, 1, 0, 0, 0, [1, 1, 1, 1, 1, 1, 1, 1]>, <4, 3, 4, 1, 0, 0, 0, [1, 1, 1, 1, 1, 1, 1, 1]>, <5, 4, 5, 1, 0, 0, 0, [1, 1, 1, 1, 1, 1, 1, 1]>, <6, 5, 6, 1, 0, 0, 0, [1, 1, 1, 1, 1, 1, 1, 1]>, <7, 6, 7, 1, 0, 0, 0, [1, 1, 1, 1, 1, 1, 1, 1]>, <8, 7, 8, 1, 0, 0, 0, [1, 1, 1, 1, 1, 1, 1, 1]>, <9, 8, 9, 1, 0, 0, 0, [1, 1, 1, 1, 1, 1, 1, 1]>, <10, 9, 10, 1, 0, 0, 0, [1, 1, 1, 1, 1, 1, 1, 1]>, <11, 10, 11, 1, 0, 0, 0, [1, 1, 1, 1, 1, 1, 1, 1]>, <12, 11, 12, 1, 0, 0, 0, [1, 1, 1, 1, 1, 1, 1, 1]>, <13, 12, 13, 1, 0, 0, 0, [1, 1, 1, 1, 1, 1, 1, 1]>, <14, 13, 14, 1, 0, 0, 0, [1, 1, 1, 1, 1, 1, 1, 1]>, <15, 14, 15, 1, 0, 0, 0, [1, 1, 1, 1, 1, 1, 1, 1]>, <16, 15, 16, 1, 0, 0, 0, [1, 1, 1, 1, 1, 1, 1, 1]>, <17, 16, 17, 1, 0, 0, 0, [1, 1, 1, 1, 1, 1, 1, 1]>, <18, 17, 18, 1, 0, 0, 0, [1, 1, 1, 1, 1, 1, 1, 1]>, <19, 18, 19, 1, 0, 0, 0, [1, 1, 1, 1, 1, 1, 1, 1]>, <20, 19, 20, 1, 0, 0, 0, [1, 1, 1, 1, 1, 1, 1, 1]>, <21, 20, 21, 1, 0, 0, 0, [1, 1, 1, 1, 1, 1, 1, 1]>, <22, 21, 22, 1, 0, 0, 0, [1, 1, 1, 1, 1, 1, 1, 1]>, <23, 22, 23, 1, 0, 0, 0, [1, 1, 1, 1, 1, 1, 1, 1]>, <24, 23, 24, 1, 0, 0, 0, [1, 1, 1, 1, 1, 1, 1, 1]>, <25, 24, 25, 1, 0, 0, 0, [1, 1, 1, 1, 1, 1, 1, 1]>, <26, 25, 26, 1, 0, 0, 0, [1, 1, 1, 1, 1, 1, 1, 1]>, <27, 26, 27, 1, 0, 0, 0, [1, 1, 1, 1, 1, 1, 1, 1]>, <28, 27, 28, 1, 0, 0, 0, [1, 1, 1, 1, 1, 1, 1, 1]>, <29, 28, 29, 1, 0, 0, 0, [1, 1, 1, 1, 1, 1, 1, 1]>, <30, 0, 13, 13, 1, 0, 0, [1, 1, 0, 0, 0, 0, 0, 0]>, <31, 1, 14, 13, 1, 0, 0, [1, 1, 0, 0, 0, 0, 0, 0]>, <32, 2, 15, 13, 1, 0, 0, [1, 1, 0, 0, 0, 0, 0, 0]>, <33, 3, 16, 13, 1, 0, 0, [1, 1, 0, 0, 0, 0, 0, 0]>, <34, 4, 17, 13, 1, 0, 0, [1, 1, 0, 0, 0, 0, 0, 0]>, <35, 5, 18, 13, 1, 0, 0, [1, 1, 0, 0, 0, 0, 0, 0]>, <36, 7, 20, 13, 1, 0, 0, [1, 1, 0, 0, 0, 0, 0, 0]>, <37, 8, 21, 13, 1, 0, 0, [1, 1, 0, 0, 0, 0, 0, 0]>, <38, 9, 22, 13, 1, 0, 0, [1, 1, 0, 0, 0, 0, 0, 0]>, <39, 10, 23, 13, 1, 0, 0, [1, 1, 0, 0, 0, 0, 0, 0]>, <40, 11, 24, 13, 1, 0, 0, [1, 1, 0, 0, 0, 0, 0, 0]>, <41, 12, 25, 13, 1, 0, 0, [1, 1, 0, 0, 0, 0, 0, 0]>, <42, 13, 26, 13, 1, 0, 0, [1, 1, 0, 0, 0, 0, 0, 0]>, <43, 14, 27, 13, 1, 0, 0, [1, 1, 0, 0, 0, 0, 0, 0]>, <44, 15, 28, 13, 1, 0, 0, [1, 1, 0, 0, 0, 0, 0, 0]>, <45, 16, 29, 13, 1, 0, 0, [1, 1, 0, 0, 0, 0, 0, 0]>, <46, 0, 12, 12, 2, 0, 0, [0, 0, 0, 1, 1, 0, 0, 0]>, <47, 1, 13, 12, 2, 0, 0, [0, 0, 0, 1, 1, 0, 0, 0]>, <48, 2, 14, 12, 2, 0, 0, [0, 0, 0, 1, 1, 0, 0, 0]>, <49, 3, 15, 12, 2, 0, 0, [0, 0, 0, 1, 1, 0, 0, 0]>, <50, 4, 16, 12, 2, 0, 0, [0, 0, 0, 1, 1, 0, 0, 0]>, <51, 5, 17, 12, 2, 0, 0, [0, 0, 0, 1, 1, 0, 0, 0]>, <52, 8, 20, 12, 2, 0, 0, [0, 0, 0, 1, 1, 0, 0, 0]>, <53, 9, 21, 12, 2, 0, 0, [0, 0, 0, 1, 1, 0, 0, 0]>, <54, 10, 22, 12, 2, 0, 0, [0, 0, 0, 1, 1, 0, 0, 0]>, <55, 11, 23, 12, 2, 0, 0, [0, 0, 0, 1, 1, 0, 0, 0]>, <56, 12, 24, 12, 2, 0, 0, [0, 0, 0, 1, 1, 0, 0, 0]>, <57, 13, 25, 12, 2, 0, 0, [0, 0, 0, 1, 1, 0, 0, 0]>, <58, 14, 26, 12, 2, 0, 0, [0, 0, 0, 1, 1, 0, 0, 0]>, <59, 15, 27, 12, 2, 0, 0, [0, 0, 0, 1, 1, 0, 0, 0]>, <60, 16, 28, 12, 2, 0, 0, [0, 0, 0, 1, 1, 0, 0, 0]>, <61, 17, 29, 12, 2, 0, 0, [0, 0, 0, 1, 1, 0, 0, 0]>, <62, 1, 12, 11, 3, 0, 0, [0, 0, 0, 0, 0, 0, 1, 1]>, <63, 2, 13, 11, 3, 0, 0, [0, 0, 0, 0, 0, 0, 1, 1]>, <64, 3, 14, 11, 3, 0, 0, [0, 0, 0, 0, 0, 0, 1, 1]>, <65, 4, 15, 11, 3, 0, 0, [0, 0, 0, 0, 0, 0, 1, 1]>, <66, 5, 16, 11, 3, 0, 0, [0, 0, 0, 0, 0, 0, 1, 1]>, <67, 9, 20, 11, 3, 0, 0, [0, 0, 0, 0, 0, 0, 1, 1]>, <68, 10, 21, 11, 3, 0, 0, [0, 0, 0, 0, 0, 0, 1, 1]>, <69, 11, 22, 11, 3, 0, 0, [0, 0, 0, 0, 0, 0, 1, 1]>, <70, 12, 23, 11, 3, 0, 0, [0, 0, 0, 0, 0, 0, 1, 1]>, <71, 13, 24, 11, 3, 0, 0, [0, 0, 0, 0, 0, 0, 1, 1]>, <72, 14, 25, 11, 3, 0, 0, [0, 0, 0, 0, 0, 0, 1, 1]>, <73, 15, 26, 11, 3, 0, 0, [0, 0, 0, 0, 0, 0, 1, 1]>, <74, 16, 27, 11, 3, 0, 0, [0, 0, 0, 0, 0, 0, 1, 1]>, <75, 17, 28, 11, 3, 0, 0, [0, 0, 0, 0, 0, 0, 1, 1]>, <76, 18, 29, 11, 3, 0, 0, [0, 0, 0, 0, 0, 0, 1, 1]>, <77, 1, 12, 11, 4, 0, 0, [0, 0, 0, 0, 1, 1, 0, 0]>, <78, 2, 13, 11, 4, 0, 0, [0, 0, 0, 0, 1, 1, 0, 0]>, <79, 3, 14, 11, 4, 0, 0, [0, 0, 0, 0, 1, 1, 0, 0]>, <80, 4, 15, 11, 4, 0, 0, [0, 0, 0, 0, 1, 1, 0, 0]>, <81, 5, 16, 11, 4, 0, 0, [0, 0, 0, 0, 1, 1, 0, 0]>, <82, 9, 20, 11, 4, 0, 0, [0, 0, 0, 0, 1, 1, 0, 0]>, <83, 10, 21, 11, 4, 0, 0, [0, 0, 0, 0, 1, 1, 0, 0]>, <84, 11, 22, 11, 4, 0, 0, [0, 0, 0, 0, 1, 1, 0, 0]>, <85, 12, 23, 11, 4, 0, 0, [0, 0, 0, 0, 1, 1, 0, 0]>, <86, 13, 24, 11, 4, 0, 0, [0, 0, 0, 0, 1, 1, 0, 0]>, <87, 14, 25, 11, 4, 0, 0, [0, 0, 0, 0, 1, 1, 0, 0]>, <88, 15, 26, 11, 4, 0, 0, [0, 0, 0, 0, 1, 1, 0, 0]>, <89, 16, 27, 11, 4, 0, 0, [0, 0, 0, 0, 1, 1, 0, 0]>, <90, 17, 28, 11, 4, 0, 0, [0, 0, 0, 0, 1, 1, 0, 0]>, <91, 18, 29, 11, 4, 0, 0, [0, 0, 0, 0, 1, 1, 0, 0]>, <92, 0, 13, 13, 5, 1, 0, [0, 0, 0, 0, 1, 1, 0, 0]>, <93, 1, 14, 13, 5, 1, 0, [0, 0, 0, 0, 1, 1, 0, 0]>, <94, 2, 15, 13, 5, 1, 0, [0, 0, 0, 0, 1, 1, 0, 0]>, <95, 3, 16, 13, 5, 1, 0, [0, 0, 0, 0, 1, 1, 0, 0]>, <96, 4, 17, 13, 5, 1, 0, [0, 0, 0, 0, 1, 1, 0, 0]>, <97, 5, 18, 13, 5, 1, 0, [0, 0, 0, 0, 1, 1, 0, 0]>, <98, 7, 20, 13, 5, 1, 0, [0, 0, 0, 0, 1, 1, 0, 0]>, <99, 8, 21, 13, 5, 1, 0, [0, 0, 0, 0, 1, 1, 0, 0]>, <100, 9, 22, 13, 5, 1, 0, [0, 0, 0, 0, 1, 1, 0, 0]>, <101, 10, 23, 13, 5, 1, 0, [0, 0, 0, 0, 1, 1, 0, 0]>, <102, 11, 24, 13, 5, 1, 0, [0, 0, 0, 0, 1, 1, 0, 0]>, <103, 12, 25, 13, 5, 1, 0, [0, 0, 0, 0, 1, 1, 0, 0]>, <104, 13, 26, 13, 5, 1, 0, [0, 0, 0, 0, 1, 1, 0, 0]>, <105, 14, 27, 13, 5, 1, 0, [0, 0, 0, 0, 1, 1, 0, 0]>, <106, 15, 28, 13, 5, 1, 0, [0, 0, 0, 0, 1, 1, 0, 0]>, <107, 16, 29, 13, 5, 1, 0, [0, 0, 0, 0, 1, 1, 0, 0]>, <108, 1, 12, 11, 6, 0, 1, [0, 0, 0, 0, 0, 0, 1, 1]>, <109, 2, 13, 11, 6, 0, 1, [0, 0, 0, 0, 0, 0, 1, 1]>, <110, 3, 14, 11, 6, 0, 1, [0, 0, 0, 0, 0, 0, 1, 1]>, <111, 4, 15, 11, 6, 0, 1, [0, 0, 0, 0, 0, 0, 1, 1]>, <112, 5, 16, 11, 6, 0, 1, [0, 0, 0, 0, 0, 0, 1, 1]>, <113, 9, 20, 11, 6, 0, 1, [0, 0, 0, 0, 0, 0, 1, 1]>, <114, 10, 21, 11, 6, 0, 1, [0, 0, 0, 0, 0, 0, 1, 1]>, <115, 11, 22, 11, 6, 0, 1, [0, 0, 0, 0, 0, 0, 1, 1]>, <116, 12, 23, 11, 6, 0, 1, [0, 0, 0, 0, 0, 0, 1, 1]>, <117, 13, 24, 11, 6, 0, 1, [0, 0, 0, 0, 0, 0, 1, 1]>, <118, 14, 25, 11, 6, 0, 1, [0, 0, 0, 0, 0, 0, 1, 1]>, <119, 15, 26, 11, 6, 0, 1, [0, 0, 0, 0, 0, 0, 1, 1]>, <120, 16, 27, 11, 6, 0, 1, [0, 0, 0, 0, 0, 0, 1, 1]>, <121, 17, 28, 11, 6, 0, 1, [0, 0, 0, 0, 0, 0, 1, 1]>, <122, 18, 29, 11, 6, 0, 1, [0, 0, 0, 0, 0, 0, 1, 1]>, <123, 0, 13, 13, 7, 0, 1, [1, 1, 0, 0, 0, 0, 0, 0]>, <124, 1, 14, 13, 7, 0, 1, [1, 1, 0, 0, 0, 0, 0, 0]>, <125, 2, 15, 13, 7, 0, 1, [1, 1, 0, 0, 0, 0, 0, 0]>, <126, 3, 16, 13, 7, 0, 1, [1, 1, 0, 0, 0, 0, 0, 0]>, <127, 4, 17, 13, 7, 0, 1, [1, 1, 0, 0, 0, 0, 0, 0]>, <128, 5, 18, 13, 7, 0, 1, [1, 1, 0, 0, 0, 0, 0, 0]>, <129, 7, 20, 13, 7, 0, 1, [1, 1, 0, 0, 0, 0, 0, 0]>, <130, 8, 21, 13, 7, 0, 1, [1, 1, 0, 0, 0, 0, 0, 0]>, <131, 9, 22, 13, 7, 0, 1, [1, 1, 0, 0, 0, 0, 0, 0]>, <132, 10, 23, 13, 7, 0, 1, [1, 1, 0, 0, 0, 0, 0, 0]>, <133, 11, 24, 13, 7, 0, 1, [1, 1, 0, 0, 0, 0, 0, 0]>, <134, 12, 25, 13, 7, 0, 1, [1, 1, 0, 0, 0, 0, 0, 0]>, <135, 13, 26, 13, 7, 0, 1, [1, 1, 0, 0, 0, 0, 0, 0]>, <136, 14, 27, 13, 7, 0, 1, [1, 1, 0, 0, 0, 0, 0, 0]>, <137, 15, 28, 13, 7, 0, 1, [1, 1, 0, 0, 0, 0, 0, 0]>, <138, 16, 29, 13, 7, 0, 1, [1, 1, 0, 0, 0, 0, 0, 0]>, <139, 1, 12, 11, 8, 0, 1, [1, 1, 0, 0, 0, 0, 0, 0]>, <140, 2, 13, 11, 8, 0, 1, [1, 1, 0, 0, 0, 0, 0, 0]>, <141, 3, 14, 11, 8, 0, 1, [1, 1, 0, 0, 0, 0, 0, 0]>, <142, 4, 15, 11, 8, 0, 1, [1, 1, 0, 0, 0, 0, 0, 0]>, <143, 5, 16, 11, 8, 0, 1, [1, 1, 0, 0, 0, 0, 0, 0]>, <144, 9, 20, 11, 8, 0, 1, [1, 1, 0, 0, 0, 0, 0, 0]>, <145, 10, 21, 11, 8, 0, 1, [1, 1, 0, 0, 0, 0, 0, 0]>, <146, 11, 22, 11, 8, 0, 1, [1, 1, 0, 0, 0, 0, 0, 0]>, <147, 12, 23, 11, 8, 0, 1, [1, 1, 0, 0, 0, 0, 0, 0]>, <148, 13, 24, 11, 8, 0, 1, [1, 1, 0, 0, 0, 0, 0, 0]>, <149, 14, 25, 11, 8, 0, 1, [1, 1, 0, 0, 0, 0, 0, 0]>, <150, 15, 26, 11, 8, 0, 1, [1, 1, 0, 0, 0, 0, 0, 0]>, <151, 16, 27, 11, 8, 0, 1, [1, 1, 0, 0, 0, 0, 0, 0]>, <152, 17, 28, 11, 8, 0, 1, [1, 1, 0, 0, 0, 0, 0, 0]>, <153, 18, 29, 11, 8, 0, 1, [1, 1, 0, 0, 0, 0, 0, 0]>, <154, 1, 12, 11, 9, 0, 0, [0, 0, 1, 1, 0, 0, 0, 0]>, <155, 2, 13, 11, 9, 0, 0, [0, 0, 1, 1, 0, 0, 0, 0]>, <156, 3, 14, 11, 9, 0, 0, [0, 0, 1, 1, 0, 0, 0, 0]>, <157, 4, 15, 11, 9, 0, 0, [0, 0, 1, 1, 0, 0, 0, 0]>, <158, 5, 16, 11, 9, 0, 0, [0, 0, 1, 1, 0, 0, 0, 0]>, <159, 9, 20, 11, 9, 0, 0, [0, 0, 1, 1, 0, 0, 0, 0]>, <160, 10, 21, 11, 9, 0, 0, [0, 0, 1, 1, 0, 0, 0, 0]>, <161, 11, 22, 11, 9, 0, 0, [0, 0, 1, 1, 0, 0, 0, 0]>, <162, 12, 23, 11, 9, 0, 0, [0, 0, 1, 1, 0, 0, 0, 0]>, <163, 13, 24, 11, 9, 0, 0, [0, 0, 1, 1, 0, 0, 0, 0]>, <164, 14, 25, 11, 9, 0, 0, [0, 0, 1, 1, 0, 0, 0, 0]>, <165, 15, 26, 11, 9, 0, 0, [0, 0, 1, 1, 0, 0, 0, 0]>, <166, 16, 27, 11, 9, 0, 0, [0, 0, 1, 1, 0, 0, 0, 0]>, <167, 17, 28, 11, 9, 0, 0, [0, 0, 1, 1, 0, 0, 0, 0]>, <168, 18, 29, 11, 9, 0, 0, [0, 0, 1, 1, 0, 0, 0, 0]>, <169, 0, 12, 12, 10, 0, 0, [0, 1, 1, 0, 0, 0, 0, 0]>, <170, 1, 13, 12, 10, 0, 0, [0, 1, 1, 0, 0, 0, 0, 0]>, <171, 2, 14, 12, 10, 0, 0, [0, 1, 1, 0, 0, 0, 0, 0]>, <172, 3, 15, 12, 10, 0, 0, [0, 1, 1, 0, 0, 0, 0, 0]>, <173, 4, 16, 12, 10, 0, 0, [0, 1, 1, 0, 0, 0, 0, 0]>, <174, 5, 17, 12, 10, 0, 0, [0, 1, 1, 0, 0, 0, 0, 0]>, <175, 8, 20, 12, 10, 0, 0, [0, 1, 1, 0, 0, 0, 0, 0]>, <176, 9, 21, 12, 10, 0, 0, [0, 1, 1, 0, 0, 0, 0, 0]>, <177, 10, 22, 12, 10, 0, 0, [0, 1, 1, 0, 0, 0, 0, 0]>, <178, 11, 23, 12, 10, 0, 0, [0, 1, 1, 0, 0, 0, 0, 0]>, <179, 12, 24, 12, 10, 0, 0, [0, 1, 1, 0, 0, 0, 0, 0]>, <180, 13, 25, 12, 10, 0, 0, [0, 1, 1, 0, 0, 0, 0, 0]>, <181, 14, 26, 12, 10, 0, 0, [0, 1, 1, 0, 0, 0, 0, 0]>, <182, 15, 27, 12, 10, 0, 0, [0, 1, 1, 0, 0, 0, 0, 0]>, <183, 16, 28, 12, 10, 0, 0, [0, 1, 1, 0, 0, 0, 0, 0]>, <184, 17, 29, 12, 10, 0, 0, [0, 1, 1, 0, 0, 0, 0, 0]>, <185, 0, 15, 15, 11, 0, 0, [0, 0, 0, 1, 1, 0, 0, 0]>, <186, 1, 16, 15, 11, 0, 0, [0, 0, 0, 1, 1, 0, 0, 0]>, <187, 2, 17, 15, 11, 0, 0, [0, 0, 0, 1, 1, 0, 0, 0]>, <188, 3, 18, 15, 11, 0, 0, [0, 0, 0, 1, 1, 0, 0, 0]>, <189, 4, 19, 15, 11, 0, 0, [0, 0, 0, 1, 1, 0, 0, 0]>, <190, 5, 20, 15, 11, 0, 0, [0, 0, 0, 1, 1, 0, 0, 0]>, <191, 6, 21, 15, 11, 0, 0, [0, 0, 0, 1, 1, 0, 0, 0]>, <192, 7, 22, 15, 11, 0, 0, [0, 0, 0, 1, 1, 0, 0, 0]>, <193, 8, 23, 15, 11, 0, 0, [0, 0, 0, 1, 1, 0, 0, 0]>, <194, 9, 24, 15, 11, 0, 0, [0, 0, 0, 1, 1, 0, 0, 0]>, <195, 10, 25, 15, 11, 0, 0, [0, 0, 0, 1, 1, 0, 0, 0]>, <196, 11, 26, 15, 11, 0, 0, [0, 0, 0, 1, 1, 0, 0, 0]>, <197, 12, 27, 15, 11, 0, 0, [0, 0, 0, 1, 1, 0, 0, 0]>, <198, 13, 28, 15, 11, 0, 0, [0, 0, 0, 1, 1, 0, 0, 0]>, <199, 14, 29, 15, 11, 0, 0, [0, 0, 0, 1, 1, 0, 0, 0]>, <200, 2, 12, 10, 12, 0, 0, [0, 0, 0, 0, 0, 0, 1, 1]>, <201, 3, 13, 10, 12, 0, 0, [0, 0, 0, 0, 0, 0, 1, 1]>, <202, 4, 14, 10, 12, 0, 0, [0, 0, 0, 0, 0, 0, 1, 1]>, <203, 5, 15, 10, 12, 0, 0, [0, 0, 0, 0, 0, 0, 1, 1]>, <204, 10, 20, 10, 12, 0, 0, [0, 0, 0, 0, 0, 0, 1, 1]>, <205, 11, 21, 10, 12, 0, 0, [0, 0, 0, 0, 0, 0, 1, 1]>, <206, 12, 22, 10, 12, 0, 0, [0, 0, 0, 0, 0, 0, 1, 1]>, <207, 14, 24, 10, 12, 0, 0, [0, 0, 0, 0, 0, 0, 1, 1]>, <208, 15, 25, 10, 12, 0, 0, [0, 0, 0, 0, 0, 0, 1, 1]>, <209, 16, 26, 10, 12, 0, 0, [0, 0, 0, 0, 0, 0, 1, 1]>, <210, 17, 27, 10, 12, 0, 0, [0, 0, 0, 0, 0, 0, 1, 1]>, <211, 18, 28, 10, 12, 0, 0, [0, 0, 0, 0, 0, 0, 1, 1]>, <212, 19, 29, 10, 12, 0, 0, [0, 0, 0, 0, 0, 0, 1, 1]>, <213, 0, 14, 14, 13, 0, 0, [0, 0, 1, 1, 0, 0, 0, 0]>, <214, 1, 15, 14, 13, 0, 0, [0, 0, 1, 1, 0, 0, 0, 0]>, <215, 2, 16, 14, 13, 0, 0, [0, 0, 1, 1, 0, 0, 0, 0]>, <216, 3, 17, 14, 13, 0, 0, [0, 0, 1, 1, 0, 0, 0, 0]>, <217, 4, 18, 14, 13, 0, 0, [0, 0, 1, 1, 0, 0, 0, 0]>, <218, 5, 19, 14, 13, 0, 0, [0, 0, 1, 1, 0, 0, 0, 0]>, <219, 6, 20, 14, 13, 0, 0, [0, 0, 1, 1, 0, 0, 0, 0]>, <220, 7, 21, 14, 13, 0, 0, [0, 0, 1, 1, 0, 0, 0, 0]>, <221, 8, 22, 14, 13, 0, 0, [0, 0, 1, 1, 0, 0, 0, 0]>, <222, 9, 23, 14, 13, 0, 0, [0, 0, 1, 1, 0, 0, 0, 0]>, <223, 10, 24, 14, 13, 0, 0, [0, 0, 1, 1, 0, 0, 0, 0]>, <224, 11, 25, 14, 13, 0, 0, [0, 0, 1, 1, 0, 0, 0, 0]>, <225, 12, 26, 14, 13, 0, 0, [0, 0, 1, 1, 0, 0, 0, 0]>, <226, 13, 27, 14, 13, 0, 0, [0, 0, 1, 1, 0, 0, 0, 0]>, <227, 14, 28, 14, 13, 0, 0, [0, 0, 1, 1, 0, 0, 0, 0]>, <228, 15, 29, 14, 13, 0, 0, [0, 0, 1, 1, 0, 0, 0, 0]>, <229, 0, 12, 12, 14, 0, 1, [0, 0, 0, 1, 1, 0, 0, 0]>, <230, 1, 13, 12, 14, 0, 1, [0, 0, 0, 1, 1, 0, 0, 0]>, <231, 2, 14, 12, 14, 0, 1, [0, 0, 0, 1, 1, 0, 0, 0]>, <232, 3, 15, 12, 14, 0, 1, [0, 0, 0, 1, 1, 0, 0, 0]>, <233, 4, 16, 12, 14, 0, 1, [0, 0, 0, 1, 1, 0, 0, 0]>, <234, 5, 17, 12, 14, 0, 1, [0, 0, 0, 1, 1, 0, 0, 0]>, <235, 8, 20, 12, 14, 0, 1, [0, 0, 0, 1, 1, 0, 0, 0]>, <236, 9, 21, 12, 14, 0, 1, [0, 0, 0, 1, 1, 0, 0, 0]>, <237, 10, 22, 12, 14, 0, 1, [0, 0, 0, 1, 1, 0, 0, 0]>, <238, 11, 23, 12, 14, 0, 1, [0, 0, 0, 1, 1, 0, 0, 0]>, <239, 12, 24, 12, 14, 0, 1, [0, 0, 0, 1, 1, 0, 0, 0]>, <240, 13, 25, 12, 14, 0, 1, [0, 0, 0, 1, 1, 0, 0, 0]>, <241, 14, 26, 12, 14, 0, 1, [0, 0, 0, 1, 1, 0, 0, 0]>, <242, 15, 27, 12, 14, 0, 1, [0, 0, 0, 1, 1, 0, 0, 0]>, <243, 16, 28, 12, 14, 0, 1, [0, 0, 0, 1, 1, 0, 0, 0]>, <244, 17, 29, 12, 14, 0, 1, [0, 0, 0, 1, 1, 0, 0, 0]>, <245, 1, 12, 11, 15, 0, 1, [0, 0, 0, 0, 0, 0, 1, 1]>, <246, 2, 13, 11, 15, 0, 1, [0, 0, 0, 0, 0, 0, 1, 1]>, <247, 3, 14, 11, 15, 0, 1, [0, 0, 0, 0, 0, 0, 1, 1]>, <248, 4, 15, 11, 15, 0, 1, [0, 0, 0, 0, 0, 0, 1, 1]>, <249, 5, 16, 11, 15, 0, 1, [0, 0, 0, 0, 0, 0, 1, 1]>, <250, 9, 20, 11, 15, 0, 1, [0, 0, 0, 0, 0, 0, 1, 1]>, <251, 10, 21, 11, 15, 0, 1, [0, 0, 0, 0, 0, 0, 1, 1]>, <252, 11, 22, 11, 15, 0, 1, [0, 0, 0, 0, 0, 0, 1, 1]>, <253, 12, 23, 11, 15, 0, 1, [0, 0, 0, 0, 0, 0, 1, 1]>, <254, 13, 24, 11, 15, 0, 1, [0, 0, 0, 0, 0, 0, 1, 1]>, <255, 14, 25, 11, 15, 0, 1, [0, 0, 0, 0, 0, 0, 1, 1]>, <256, 15, 26, 11, 15, 0, 1, [0, 0, 0, 0, 0, 0, 1, 1]>, <257, 16, 27, 11, 15, 0, 1, [0, 0, 0, 0, 0, 0, 1, 1]>, <258, 17, 28, 11, 15, 0, 1, [0, 0, 0, 0, 0, 0, 1, 1]>, <259, 18, 29, 11, 15, 0, 1, [0, 0, 0, 0, 0, 0, 1, 1]>, <260, 1, 12, 11, 16, 0, 0, [1, 0, 0, 0, 0, 0, 0, 1]>, <261, 2, 13, 11, 16, 0, 0, [1, 0, 0, 0, 0, 0, 0, 1]>, <262, 3, 14, 11, 16, 0, 0, [1, 0, 0, 0, 0, 0, 0, 1]>, <263, 4, 15, 11, 16, 0, 0, [1, 0, 0, 0, 0, 0, 0, 1]>, <264, 5, 16, 11, 16, 0, 0, [1, 0, 0, 0, 0, 0, 0, 1]>, <265, 9, 20, 11, 16, 0, 0, [1, 0, 0, 0, 0, 0, 0, 1]>, <266, 10, 21, 11, 16, 0, 0, [1, 0, 0, 0, 0, 0, 0, 1]>, <267, 11, 22, 11, 16, 0, 0, [1, 0, 0, 0, 0, 0, 0, 1]>, <268, 12, 23, 11, 16, 0, 0, [1, 0, 0, 0, 0, 0, 0, 1]>, <269, 13, 24, 11, 16, 0, 0, [1, 0, 0, 0, 0, 0, 0, 1]>, <270, 14, 25, 11, 16, 0, 0, [1, 0, 0, 0, 0, 0, 0, 1]>, <271, 15, 26, 11, 16, 0, 0, [1, 0, 0, 0, 0, 0, 0, 1]>, <272, 16, 27, 11, 16, 0, 0, [1, 0, 0, 0, 0, 0, 0, 1]>, <273, 17, 28, 11, 16, 0, 0, [1, 0, 0, 0, 0, 0, 0, 1]>, <274, 18, 29, 11, 16, 0, 0, [1, 0, 0, 0, 0, 0, 0, 1]>, <275, 0, 14, 14, 17, 0, 0, [0, 0, 1, 1, 0, 0, 0, 0]>, <276, 1, 15, 14, 17, 0, 0, [0, 0, 1, 1, 0, 0, 0, 0]>, <277, 2, 16, 14, 17, 0, 0, [0, 0, 1, 1, 0, 0, 0, 0]>, <278, 3, 17, 14, 17, 0, 0, [0, 0, 1, 1, 0, 0, 0, 0]>, <279, 4, 18, 14, 17, 0, 0, [0, 0, 1, 1, 0, 0, 0, 0]>, <280, 5, 19, 14, 17, 0, 0, [0, 0, 1, 1, 0, 0, 0, 0]>, <281, 6, 20, 14, 17, 0, 0, [0, 0, 1, 1, 0, 0, 0, 0]>, <282, 7, 21, 14, 17, 0, 0, [0, 0, 1, 1, 0, 0, 0, 0]>, <283, 8, 22, 14, 17, 0, 0, [0, 0, 1, 1, 0, 0, 0, 0]>, <284, 9, 23, 14, 17, 0, 0, [0, 0, 1, 1, 0, 0, 0, 0]>, <285, 10, 24, 14, 17, 0, 0, [0, 0, 1, 1, 0, 0, 0, 0]>, <286, 11, 25, 14, 17, 0, 0, [0, 0, 1, 1, 0, 0, 0, 0]>, <287, 12, 26, 14, 17, 0, 0, [0, 0, 1, 1, 0, 0, 0, 0]>, <288, 13, 27, 14, 17, 0, 0, [0, 0, 1, 1, 0, 0, 0, 0]>, <289, 14, 28, 14, 17, 0, 0, [0, 0, 1, 1, 0, 0, 0, 0]>, <290, 15, 29, 14, 17, 0, 0, [0, 0, 1, 1, 0, 0, 0, 0]>, <291, 0, 12, 12, 18, 0, 1, [1, 1, 0, 0, 0, 0, 0, 0]>, <292, 1, 13, 12, 18, 0, 1, [1, 1, 0, 0, 0, 0, 0, 0]>, <293, 2, 14, 12, 18, 0, 1, [1, 1, 0, 0, 0, 0, 0, 0]>, <294, 3, 15, 12, 18, 0, 1, [1, 1, 0, 0, 0, 0, 0, 0]>, <295, 4, 16, 12, 18, 0, 1, [1, 1, 0, 0, 0, 0, 0, 0]>, <296, 5, 17, 12, 18, 0, 1, [1, 1, 0, 0, 0, 0, 0, 0]>, <297, 8, 20, 12, 18, 0, 1, [1, 1, 0, 0, 0, 0, 0, 0]>, <298, 9, 21, 12, 18, 0, 1, [1, 1, 0, 0, 0, 0, 0, 0]>, <299, 10, 22, 12, 18, 0, 1, [1, 1, 0, 0, 0, 0, 0, 0]>, <300, 11, 23, 12, 18, 0, 1, [1, 1, 0, 0, 0, 0, 0, 0]>, <301, 12, 24, 12, 18, 0, 1, [1, 1, 0, 0, 0, 0, 0, 0]>, <302, 13, 25, 12, 18, 0, 1, [1, 1, 0, 0, 0, 0, 0, 0]>, <303, 14, 26, 12, 18, 0, 1, [1, 1, 0, 0, 0, 0, 0, 0]>, <304, 15, 27, 12, 18, 0, 1, [1, 1, 0, 0, 0, 0, 0, 0]>, <305, 16, 28, 12, 18, 0, 1, [1, 1, 0, 0, 0, 0, 0, 0]>, <306, 17, 29, 12, 18, 0, 1, [1, 1, 0, 0, 0, 0, 0, 0]>, <307, 1, 12, 11, 19, 1, 0, [0, 0, 0, 1, 1, 0, 0, 0]>, <308, 2, 13, 11, 19, 1, 0, [0, 0, 0, 1, 1, 0, 0, 0]>, <309, 3, 14, 11, 19, 1, 0, [0, 0, 0, 1, 1, 0, 0, 0]>, <310, 4, 15, 11, 19, 1, 0, [0, 0, 0, 1, 1, 0, 0, 0]>, <311, 5, 16, 11, 19, 1, 0, [0, 0, 0, 1, 1, 0, 0, 0]>, <312, 9, 20, 11, 19, 1, 0, [0, 0, 0, 1, 1, 0, 0, 0]>, <313, 10, 21, 11, 19, 1, 0, [0, 0, 0, 1, 1, 0, 0, 0]>, <314, 11, 22, 11, 19, 1, 0, [0, 0, 0, 1, 1, 0, 0, 0]>, <315, 12, 23, 11, 19, 1, 0, [0, 0, 0, 1, 1, 0, 0, 0]>, <316, 13, 24, 11, 19, 1, 0, [0, 0, 0, 1, 1, 0, 0, 0]>, <317, 14, 25, 11, 19, 1, 0, [0, 0, 0, 1, 1, 0, 0, 0]>, <318, 15, 26, 11, 19, 1, 0, [0, 0, 0, 1, 1, 0, 0, 0]>, <319, 16, 27, 11, 19, 1, 0, [0, 0, 0, 1, 1, 0, 0, 0]>, <320, 17, 28, 11, 19, 1, 0, [0, 0, 0, 1, 1, 0, 0, 0]>, <321, 18, 29, 11, 19, 1, 0, [0, 0, 0, 1, 1, 0, 0, 0]>, <322, 1, 12, 11, 20, 0, 1, [0, 1, 1, 0, 0, 0, 0, 0]>, <323, 2, 13, 11, 20, 0, 1, [0, 1, 1, 0, 0, 0, 0, 0]>, <324, 3, 14, 11, 20, 0, 1, [0, 1, 1, 0, 0, 0, 0, 0]>, <325, 4, 15, 11, 20, 0, 1, [0, 1, 1, 0, 0, 0, 0, 0]>, <326, 5, 16, 11, 20, 0, 1, [0, 1, 1, 0, 0, 0, 0, 0]>, <327, 9, 20, 11, 20, 0, 1, [0, 1, 1, 0, 0, 0, 0, 0]>, <328, 10, 21, 11, 20, 0, 1, [0, 1, 1, 0, 0, 0, 0, 0]>, <329, 11, 22, 11, 20, 0, 1, [0, 1, 1, 0, 0, 0, 0, 0]>, <330, 12, 23, 11, 20, 0, 1, [0, 1, 1, 0, 0, 0, 0, 0]>, <331, 13, 24, 11, 20, 0, 1, [0, 1, 1, 0, 0, 0, 0, 0]>, <332, 14, 25, 11, 20, 0, 1, [0, 1, 1, 0, 0, 0, 0, 0]>, <333, 15, 26, 11, 20, 0, 1, [0, 1, 1, 0, 0, 0, 0, 0]>, <334, 16, 27, 11, 20, 0, 1, [0, 1, 1, 0, 0, 0, 0, 0]>, <335, 17, 28, 11, 20, 0, 1, [0, 1, 1, 0, 0, 0, 0, 0]>, <336, 18, 29, 11, 20, 0, 1, [0, 1, 1, 0, 0, 0, 0, 0]>, <337, 0, 14, 14, 21, 0, 1, [0, 0, 0, 1, 1, 0, 0, 0]>, <338, 1, 15, 14, 21, 0, 1, [0, 0, 0, 1, 1, 0, 0, 0]>, <339, 2, 16, 14, 21, 0, 1, [0, 0, 0, 1, 1, 0, 0, 0]>, <340, 3, 17, 14, 21, 0, 1, [0, 0, 0, 1, 1, 0, 0, 0]>, <341, 4, 18, 14, 21, 0, 1, [0, 0, 0, 1, 1, 0, 0, 0]>, <342, 5, 19, 14, 21, 0, 1, [0, 0, 0, 1, 1, 0, 0, 0]>, <343, 6, 20, 14, 21, 0, 1, [0, 0, 0, 1, 1, 0, 0, 0]>, <344, 7, 21, 14, 21, 0, 1, [0, 0, 0, 1, 1, 0, 0, 0]>, <345, 8, 22, 14, 21, 0, 1, [0, 0, 0, 1, 1, 0, 0, 0]>, <346, 9, 23, 14, 21, 0, 1, [0, 0, 0, 1, 1, 0, 0, 0]>, <347, 10, 24, 14, 21, 0, 1, [0, 0, 0, 1, 1, 0, 0, 0]>, <348, 11, 25, 14, 21, 0, 1, [0, 0, 0, 1, 1, 0, 0, 0]>, <349, 12, 26, 14, 21, 0, 1, [0, 0, 0, 1, 1, 0, 0, 0]>, <350, 13, 27, 14, 21, 0, 1, [0, 0, 0, 1, 1, 0, 0, 0]>, <351, 14, 28, 14, 21, 0, 1, [0, 0, 0, 1, 1, 0, 0, 0]>, <352, 15, 29, 14, 21, 0, 1, [0, 0, 0, 1, 1, 0, 0, 0]>};
